48
2D g-C3N4 nanocarrier model: pristine
N       0.000000     0.000000     0.000000
C       0.000000     1.380000     0.000000
C       1.195100    -0.690000     0.000000
C      -1.195100    -0.690000     0.000000
N       1.195100     2.070000     0.000000
N      -1.195100     2.070000     0.000000
N       2.390200     0.000000     0.000000
N       1.195100    -2.070000     0.000000
N      -2.390200     0.000000     0.000000
N      -1.195100    -2.070000     0.000000
C       2.390200     1.380000     0.000000
C       0.000000    -2.760000     0.000000
C      -2.390200     1.380000     0.000000
N       3.585300     2.070000     0.000000
N       0.000000    -4.140000     0.000000
N      -3.585300     2.070000     0.000000
C       3.585300     3.450000     0.000000
C       4.780400     1.380000     0.000000
C      -3.585300     3.450000     0.000000
C      -4.780400     1.380000     0.000000
C       1.195100    -4.830000     0.000000
C      -1.195100    -4.830000     0.000000
N       4.780400     4.140000     0.000000
N       5.975500     2.070000     0.000000
N      -4.780400     4.140000     0.000000
N      -5.975500     2.070000     0.000000
N       2.390200    -5.520000     0.000000
N      -2.390200    -5.520000     0.000000
C       5.975500     3.450000     0.000000
C      -5.975500     3.450000     0.000000
C       0.000000    -6.210000     0.000000
N       7.170600     4.140000     0.000000
N      -7.170600     4.140000     0.000000
N       0.000000    -7.590000     0.000000
C       2.390200     4.140000     0.000000
C      -2.390200     4.140000     0.000000
C       3.585300    -2.760000     0.000000
C      -3.585300    -2.760000     0.000000
C       1.195100     4.830000     0.000000
C      -1.195100     4.830000     0.000000
N       2.390200     5.520000     0.000000
N      -2.390200     5.520000     0.000000
H       7.170600     5.140000     0.000000
H      -7.170600     5.140000     0.000000
H       0.000000    -8.590000     0.000000
H       2.390200     6.520000     0.000000
H      -2.390200     6.520000     0.000000
H       0.000000     5.520000     0.000000
