120
Ti3C2O2 block, a = 3.03 A
C 0.0000 6.9975 -1.1500
Ti 0.0000 6.9975 2.3300
C 0.0000 1.7494 -1.1500
Ti 0.0000 1.7494 2.3300
C 0.0000 3.4987 1.1500
C 1.5150 4.3734 -1.1500
Ti 1.5150 4.3734 2.3300
Ti 0.0000 3.4987 -2.3300
Ti 0.0000 5.2481 0.0000
C 1.5150 6.1228 1.1500
C 3.0300 6.9975 -1.1500
Ti 3.0300 6.9975 2.3300
Ti 1.5150 6.1228 -2.3300
O 0.0000 5.2481 3.3000
O 0.0000 5.2481 -3.3000
Ti 1.5150 7.8722 0.0000
O 1.5150 7.8722 3.3000
O 1.5150 7.8722 -3.3000
Ti 0.0000 0.0000 0.0000
C 1.5150 0.8747 1.1500
C 3.0300 1.7494 -1.1500
Ti 3.0300 1.7494 2.3300
Ti 1.5150 0.8747 -2.3300
O 0.0000 0.0000 3.3000
O 0.0000 0.0000 -3.3000
Ti 1.5150 2.6241 0.0000
C 3.0300 3.4987 1.1500
C 4.5450 4.3734 -1.1500
Ti 4.5450 4.3734 2.3300
Ti 3.0300 3.4987 -2.3300
O 1.5150 2.6241 3.3000
O 1.5150 2.6241 -3.3000
Ti 3.0300 5.2481 0.0000
C 4.5450 6.1228 1.1500
C 6.0600 6.9975 -1.1500
Ti 6.0600 6.9975 2.3300
Ti 4.5450 6.1228 -2.3300
O 3.0300 5.2481 3.3000
O 3.0300 5.2481 -3.3000
Ti 4.5450 7.8722 0.0000
O 4.5450 7.8722 3.3000
O 4.5450 7.8722 -3.3000
Ti 3.0300 0.0000 0.0000
C 4.5450 0.8747 1.1500
C 6.0600 1.7494 -1.1500
Ti 6.0600 1.7494 2.3300
Ti 4.5450 0.8747 -2.3300
O 3.0300 0.0000 3.3000
O 3.0300 0.0000 -3.3000
Ti 4.5450 2.6241 0.0000
C 6.0600 3.4987 1.1500
C 7.5750 4.3734 -1.1500
Ti 7.5750 4.3734 2.3300
Ti 6.0600 3.4987 -2.3300
O 4.5450 2.6241 3.3000
O 4.5450 2.6241 -3.3000
Ti 6.0600 5.2481 0.0000
C 7.5750 6.1228 1.1500
C 9.0900 6.9975 -1.1500
Ti 9.0900 6.9975 2.3300
Ti 7.5750 6.1228 -2.3300
O 6.0600 5.2481 3.3000
O 6.0600 5.2481 -3.3000
Ti 7.5750 7.8722 0.0000
O 7.5750 7.8722 3.3000
O 7.5750 7.8722 -3.3000
Ti 6.0600 0.0000 0.0000
C 7.5750 0.8747 1.1500
C 9.0900 1.7494 -1.1500
Ti 9.0900 1.7494 2.3300
Ti 7.5750 0.8747 -2.3300
O 6.0600 0.0000 3.3000
O 6.0600 0.0000 -3.3000
Ti 7.5750 2.6241 0.0000
C 9.0900 3.4987 1.1500
C 10.6050 4.3734 -1.1500
Ti 10.6050 4.3734 2.3300
Ti 9.0900 3.4987 -2.3300
O 7.5750 2.6241 3.3000
O 7.5750 2.6241 -3.3000
Ti 9.0900 5.2481 0.0000
C 10.6050 6.1228 1.1500
C 12.1200 6.9975 -1.1500
Ti 12.1200 6.9975 2.3300
Ti 10.6050 6.1228 -2.3300
O 9.0900 5.2481 3.3000
O 9.0900 5.2481 -3.3000
Ti 10.6050 7.8722 0.0000
O 10.6050 7.8722 3.3000
O 10.6050 7.8722 -3.3000
Ti 9.0900 0.0000 0.0000
C 10.6050 0.8747 1.1500
C 12.1200 1.7494 -1.1500
Ti 12.1200 1.7494 2.3300
Ti 10.6050 0.8747 -2.3300
O 9.0900 0.0000 3.3000
O 9.0900 0.0000 -3.3000
Ti 10.6050 2.6241 0.0000
C 12.1200 3.4987 1.1500
C 13.6350 4.3734 -1.1500
Ti 13.6350 4.3734 2.3300
Ti 12.1200 3.4987 -2.3300
O 10.6050 2.6241 3.3000
O 10.6050 2.6241 -3.3000
Ti 12.1200 5.2481 0.0000
C 13.6350 6.1228 1.1500
Ti 13.6350 6.1228 -2.3300
O 12.1200 5.2481 3.3000
O 12.1200 5.2481 -3.3000
Ti 13.6350 7.8722 0.0000
O 13.6350 7.8722 3.3000
O 13.6350 7.8722 -3.3000
Ti 12.1200 0.0000 0.0000
C 13.6350 0.8747 1.1500
Ti 13.6350 0.8747 -2.3300
O 12.1200 0.0000 3.3000
O 12.1200 0.0000 -3.3000
Ti 13.6350 2.6241 0.0000
O 13.6350 2.6241 3.3000
O 13.6350 2.6241 -3.3000
