55
B40H15 beta12-borophene flake, GFN2-xTB opt tight, uhf=1 (doublet), etemp 1500 K, E=-56.19705823 Eh
B           -4.79010042851074       -2.58068041028841        0.29337619386512
B           -4.56802517269132       -1.30913532184253       -0.64415870339125
B           -4.42597821542698       -0.18707903661235       -1.86044258113139
B           -3.41028623334452       -2.63423897961389       -0.52936128038888
B           -3.00980357357221        0.22983222863680       -1.34471370281418
B           -4.37902719138368        0.37317671697338       -0.15015022745256
B           -5.03433840353993        1.44213514664929        0.84582601351743
B           -4.61506507888116        3.02448044999624        0.99676345021712
B           -2.80200981492043        0.52945061907669        0.26747035709858
B           -3.22661865311246        3.28674810646251        1.80793736668848
B           -2.18941689113448       -3.75742320795632       -0.68663884578517
B           -1.87939005091434       -2.21228063321064       -0.91938086425870
B           -1.69036561862500       -0.58630499634533       -0.76611258012535
B           -0.59797048105101       -3.20667067822283       -0.86366200898964
B           -0.21462197556081       -0.13833068861228       -0.22412544074973
B           -1.39204062174176        0.05438499963232        0.93193989037325
B           -1.76810005518329        1.67953081684379        0.83377435186501
B           -1.88883170206732        3.25550481516314        0.91975331768359
B           -0.20493947171720        1.05202026891947        1.14770407987525
B           -0.74192580132588        4.36359796470423        0.59238285308975
B            0.80805692989573       -4.10709929798501       -0.79951248686461
B            0.90386733581915       -2.50027293419505       -0.73073126736562
B            1.20929142724449       -0.95020022795120       -0.52197784659128
B            2.19381067646976       -3.41780103988283       -0.21407323811271
B            2.62235359724666       -0.21177142502762       -0.23285892422891
B            1.24468297007178        0.55172433005525        0.20202166283694
B            1.13168935168010        2.01390394492855        1.10544438881745
B            0.53939401587821        3.44539278187046        0.66283909974305
B            2.45324125528126        1.68639602390849        0.14531993875414
B            1.20604983050546        3.00544959548593       -0.80408470220943
B            3.21408270402824       -3.91338229421009        1.03989351479586
B            3.62929546517736       -2.69099044863923        0.02799271569088
B            4.01883878010995       -1.15342133476254       -0.25587348599494
B            4.43049556622811       -2.93479769231955        1.37391803912847
B            5.35764264888291       -0.27502107096832       -0.72762236638923
B            4.12422615303846        0.48323431959887        0.00829045983669
B            4.02688612385294        2.26856818560347       -0.05949890475936
B            2.81660492842226        3.06739214654957       -0.90171182072267
B            5.43555822233402        1.41029171380261       -0.18699392283862
B            4.29498927918066        3.46459441228950       -1.09546911487656
H           -5.18082984329069       -3.07211446062930        1.28521661214631
H           -5.72121360806642       -2.03294228370188       -0.40871201787924
H           -5.20603027973759       -0.03247525990624       -2.73277044121459
H           -5.78960132300569        1.05793900633900        1.68212616042148
H           -5.34702014299189        3.87797962417734        0.63626007485929
H           -3.26012888653851        3.33835364279805        2.98849604956748
H           -2.41039236379620       -4.90909235131651       -0.66573913749880
H           -0.88058080158014        5.49195909788661        0.28020702435378
H            0.81042527009013       -5.23929008454649       -1.09956067367561
H            0.53593633506889        2.67154890542226       -1.72385123416124
H            2.95084606131311       -4.90220762593786        1.61055341769830
H            5.28815840597251       -2.63422968968075        2.10601345630075
H            6.35990870695592       -0.69178481867545       -1.16593301299855
H            6.51250675587841        1.78910109253848        0.08292321559991
H            5.14315988708177        4.12080133674988       -1.55872287133890
