102
Galantamine/beta12_supported GFN2 opt
C      -4.35188618     -2.42385838      4.26575267
O      -3.43658821     -1.40155639      3.94655618
C      -2.12544642     -1.58950887      4.27994047
C      -1.56752546     -2.78117571      4.73738276
C      -0.22197221     -2.86640471      5.06293457
C       0.62697782     -1.76795086      4.99597742
C       0.07492380     -0.58596991      4.53480324
C      -1.26054712     -0.50707773      4.15243049
O      -1.60961778      0.72291255      3.68093557
C      -0.38531023      1.46285082      3.50456922
C      -0.60962484      2.94320706      3.77416141
C      -1.06743291      3.17065797      5.21782506
O      -2.42587709      2.81600355      5.38690602
C      -0.17924530      2.41252349      6.17147427
C       0.58982345      1.39216744      5.81917430
C       0.65763077      0.80263649      4.43354712
C       2.06098837      0.85340866      3.82537540
C       3.15290124      0.11699995      4.59995375
N       3.03507713     -1.33178461      4.52416901
C       4.32585189     -1.96550608      4.72502472
C       2.05525342     -1.88341118      5.44982324
H      -5.33138347     -2.03349191      3.99549160
H      -4.33295862     -2.65380216      5.33574898
H      -4.15702885     -3.33295461      3.68766859
H      -2.17948936     -3.66149226      4.83408816
H       0.16647512     -3.81594226      5.39615058
H      -0.08094683      1.31748217      2.45688241
H       0.32446332      3.47582897      3.59700381
H      -1.37136084      3.32787139      3.09564986
H      -1.02437424      4.23957525      5.46129284
H      -2.54053643      1.94016040      4.98790448
H      -0.22980547      2.72679132      7.20358646
H       1.17633811      0.88305214      6.56931810
H       2.35746676      1.90126891      3.74460770
H       2.01958689      0.41789772      2.82422531
H       4.10147018      0.38633600      4.12998771
H       3.19376829      0.46314084      5.64687331
H       4.72527808     -1.80494319      5.73891711
H       5.03598787     -1.56982842      4.00186466
H       4.23003166     -3.03622063      4.55316263
H       2.27504907     -2.94571969      5.57401828
H       2.15101861     -1.41442845      6.44926066
B      -5.87470825      3.60136552     -0.34413631
B      -5.91501837      1.89101820     -0.30951511
B      -4.37572720      4.32772512     -0.75162578
B      -4.43835844      2.70428426     -0.28483024
B      -4.49477696      1.05748883      0.11982711
B      -6.02640732     -1.42540444      0.38917857
B      -6.09409910     -3.01393679      1.01190455
B      -4.54947836     -0.58435240      0.46315548
B      -4.60289373     -2.25990756      0.72849383
B      -4.64980338     -3.93480917      0.95106973
B      -2.94035551      3.50011800     -0.40571368
B      -3.00277172      1.85576866      0.04452515
B      -1.46454469      4.32451837     -0.30029883
B      -1.51416230      2.65190563     -0.06794176
B      -1.56339661      0.96906405      0.14962388
B      -3.11119177     -1.44735453      0.69807127
B      -3.16074078     -3.12993256      0.96496054
B      -1.61823742     -0.67821732      0.49306545
B      -1.67858630     -2.31393217      0.93971926
B      -1.73933529     -3.93569296      1.41382479
B      -0.02444671      3.46083736     -0.11470415
B      -0.07107326      1.75726987      0.03590368
B       1.46443000      4.24897202     -0.20341779
B       1.41342024      2.58013470      0.05242637
B       1.36006804      0.91334109      0.35187362
B      -0.18487104     -1.52184087      0.80902908
B      -0.24153679     -3.18074322      1.18417273
B       1.30326677     -0.72507343      0.73485532
B       1.24928742     -2.38617697      1.06329202
B       1.20019041     -4.06471720      1.26812241
B       2.90541460      3.36475624     -0.11930220
B       2.84788760      1.71822274      0.31787484
B       4.40181346      4.12325301     -0.32717879
B       4.34490784      2.49178326      0.10253526
B       4.28613119      0.84241783      0.49351195
B       2.74040421     -1.58938061      0.95309678
B       2.68073468     -3.24559430      1.34449577
B       4.22890939     -0.78751076      0.89006279
B       4.17368223     -2.43924145      1.27174875
B       4.11130611     -4.06517661      1.72473879
B       5.82073125      3.33032022      0.22291031
B       5.77944790      1.61687906      0.25335409
B       5.65310534     -1.62685748      1.28649426
B       5.61320444     -3.33857673      1.32590361
H      -6.82387475      4.25897691     -0.13471453
H      -6.87210172      1.33667426     -0.69157839
H      -4.37083135      5.34665540     -1.33694794
H      -6.95127923     -0.98738808     -0.17685778
H      -7.06761597     -3.48146617      1.47373079
H      -4.71711468     -5.10687047      0.87987314
H      -1.44959171      5.49988874     -0.29751053
H      -1.79909666     -5.01718678      1.87269856
H       1.50581274      5.41580640     -0.34159606
H       1.17263534     -5.23948652      1.30866201
H       4.50296274      5.14244279     -0.90493109
H       4.10779420     -5.09810491      2.28687349
H       6.77370940      3.94530362      0.52662322
H       6.74555950      1.01415884     -0.02564371
H       6.59822471     -1.05931115      1.68612683
H       6.55558162     -4.00685246      1.11877356
