97
Galantamine/beta12_borophene GFN2 opt
C      -4.05190678     -1.77854220      3.72077174
O      -3.12405860     -0.80770327      4.15135306
C      -2.23608545     -1.15934051      5.13076111
C      -2.03028261     -2.44367832      5.61918802
C      -1.05900319     -2.69930662      6.57416269
C      -0.26264330     -1.69360690      7.10809122
C      -0.48017753     -0.41235786      6.63655196
C      -1.43474580     -0.15276515      5.66438543
O      -1.49882196      1.16078499      5.30887373
C      -0.34774867      1.80680631      5.87684942
C      -0.68535833      3.23324794      6.28683188
C      -1.74492871      3.25479131      7.39099111
O      -3.02837883      2.94346043      6.88806697
C      -1.34753986      2.31372965      8.50031920
C      -0.50839375      1.30311503      8.34348365
C       0.13473753      0.90735781      7.04012402
C       1.66453971      0.88390303      7.10822787
C       2.27374852     -0.07908551      8.12835532
N       2.09599683     -1.46978235      7.75493007
C       3.18688424     -2.30682938      8.20405557
C       0.79743200     -2.00617014      8.12863197
H      -4.69360394     -1.27283155      3.00207734
H      -4.65439384     -2.14774101      4.55608892
H      -3.55481751     -2.61623852      3.22543424
H      -2.61404349     -3.26656067      5.24107087
H      -0.92026190     -3.71654311      6.90788335
H       0.42236634      1.82383546      5.09225745
H       0.22493244      3.71631244      6.64076479
H      -1.05836244      3.77578609      5.41828910
H      -1.83927873      4.26929122      7.79863844
H      -2.92378160      2.18106341      6.29906009
H      -1.82344058      2.48647545      9.45463137
H      -0.29185308      0.65520494      9.17991800
H       2.01134768      1.89359044      7.33957858
H       2.04058668      0.59968556      6.12496406
H       3.34675726      0.12536016      8.15174460
H       1.88208159      0.12436051      9.14020177
H       3.27000451     -2.36525274      9.30177631
H       4.12124994     -1.91439813      7.80657057
H       3.05008160     -3.31321145      7.81187739
H       0.88014930     -3.09204562      8.20702010
H       0.47924356     -1.63150603      9.12063902
B      -3.01134904      2.10530544     -1.04130902
B      -2.02393625      0.69437400     -1.35849942
B      -1.45212283     -0.66216057     -2.01179797
B      -1.22810798      2.11819531     -1.39929352
B      -0.64524722     -0.87789237     -0.61263835
B      -3.21220570      0.52717439     -0.17628795
B      -4.44495801     -0.38180957      0.23450601
B      -3.95030885     -1.82885894     -0.31077910
B      -1.79293900      0.13241624      0.59901515
B      -2.82237948     -2.58162088      0.56397404
B      -0.53586658      3.61145587     -1.61978506
B       0.21887144      2.39050470     -0.76178400
B      -0.41703970      0.97181642     -0.13614785
B       0.53844708      3.96546599     -0.42607464
B       0.81618182     -0.17323300     -0.03530707
B      -0.54146718      0.95839383      1.58028246
B      -1.33241086     -0.50840652      2.06240279
B      -1.44871318     -1.66533923      0.72222372
B       0.03855697     -0.08557101      2.79003785
B      -0.29558489     -1.85706913      2.05278138
B       1.05634968      4.25273656      1.06555512
B       1.66222390      2.94903674      0.16942371
B       2.56583595      1.79554583      0.77705973
B       1.39822857      2.83490090      1.99140575
B       3.52923980      0.77178769      1.50968382
B       2.28446006      0.12477284      0.43178219
B       1.09275464     -0.78478221      1.66654339
B       0.33278253     -1.87665784      0.45215125
B       2.76926279     -1.07192094      1.41199064
B       1.53527387     -2.96660913      0.09073823
B      -0.12240487      2.34612268      2.30731040
B       2.56823278      1.86546938      2.50681023
B       2.83478868      0.63227386      3.48183761
B       1.41800248     -0.33546452      3.57206080
B       4.07910812     -0.20114215      4.08658800
B       4.28040287     -0.34042494      2.36643422
B       3.91053774     -2.08071628      2.16957550
B       2.78134708     -2.75118593      1.10660262
B       5.00949485     -1.45811677      3.22476788
B       3.60063973     -3.62734224      2.13669738
H      -3.09830359      2.71358826     -0.02026426
H      -3.75638019      2.48592036     -1.88183262
H      -1.50423205     -1.18174142     -3.06444295
H      -5.39696185     -0.14691620      0.88695993
H      -4.23242673     -2.20236682     -1.39208232
H      -2.96623321     -3.62789435      1.09876771
H      -0.94265013      4.32507951     -2.45637862
H      -0.24841691     -2.75872637      2.81043249
H       1.03532702      5.25559341      1.67475703
H       1.55245825     -3.71330543     -0.82650115
H      -0.92042003      2.93354371      2.94656444
H       1.47309215     -1.27462287      4.30645221
H       4.42278931     -0.25736351      5.20814745
H       5.99983435     -1.91544966      3.65747803
H       3.87031251     -4.67942826      2.56286789
